1456
5
1, 45, 78, 234, 1345, 7, 23, 90, 14, 35, 900, 12, 1, 7, 3, 45, 78, 51, 11, 88, 77, 3, 9, 5, 123, 56, 67, 237, 101, 34, 23, 678, 1, 90, 2, 5, 7, 2, 8, 34, 12, 11, 78, 8, 34, 9, 12, 10, 4, 6
2, 34, 5, 13, 676, 24, 6, 34, 676, 23, 5, 24, 87, 5, 12, 89, 1, 67, 4, 3, 90, 234, 54, 654, 12, 78, 26, 51, 90, 3, 7, 8, 3, 5, 6, 78, 12, 45, 76, 85, 32, 9, 3, 23, 57, 3, 6, 67, 123, 57
1, 2, 3, 4, 5, 5, 4, 3, 2, 1, 1, 2, 5, 3, 4, 2, 1, 3, 4, 5, 2, 1, 4, 4, 4, 3, 5, 5, 1, 1, 2, 4, 2, 5, 4, 3, 2, 1, 5, 1, 2, 3, 4, 5, 4, 3, 1, 1, 4, 5